LAMMPS data file via write_data, version 10 Dec 2025, timestep = 30531, units = lj

400 atoms
2 atom types
360 bonds
2 bond types

0 15 xlo xhi
0 15 ylo yhi
0 15 zlo zhi

Masses

1 1
2 1

Pair Coeffs # lj/cut

1 1 1
2 1 1

Bond Coeffs # fene

1 30 1.5 1 1
2 30 1.5 1 1

Atoms # bond

44 1 1 9.167229155870784 4.448252620957279 4.413523766441709 -1 0 -1
325 1 1 11.655665788264043 4.403866181398093 4.81549598218101 -1 0 -1
226 1 1 7.514325685668728 4.840632196434658 4.890491718573082 0 0 0
266 1 1 8.95172785870136 5.599583435674236 4.824498902869058 0 0 0
326 1 1 11.16385449457622 5.082898787046002 4.340288924231554 -1 0 -1
230 1 1 7.3834716018801245 7.0518796534716435 4.96691618323471 0 0 0
384 1 1 8.141759277483605 6.405923598073906 4.339949781191916 0 0 0
231 1 1 6.771365473003538 7.495081704310105 4.404112329335414 0 0 0
6 1 1 5.150787931779307 4.436068957499713 5.740323167924926 0 0 0
7 1 1 6.1557419827475774 4.585093059079466 5.75838722086555 0 0 0
228 1 1 8.664678038821304 3.2349130509953055 4.954131061202658 0 0 0
227 1 1 8.053551744466889 3.9635785450225955 4.867549638154657 0 0 0
43 1 1 9.789129531102573 3.968963007901585 5.043967770975402 -1 0 -1
41 1 1 11.278110963891908 3.5682378895502986 4.500665624409166 -1 0 -1
42 1 1 10.578131198381092 4.284713192600958 4.553981853877506 -1 0 -1
155 1 1 12.177804937528338 4.160125727741728 5.738908773580383 -1 0 -1
154 1 1 12.888116495238842 4.709916297414525 5.391497021662871 -1 0 -1
153 1 1 12.967151080668351 3.94243699407281 4.803513122946024 -1 0 -1
323 1 1 5.158763426938374 5.61241731583992 5.760499285124053 0 0 0
382 1 1 7.050479579511303 5.7522179448492805 5.7595154485457885 0 0 0
381 1 1 6.4917431610359815 5.5433797840342685 5.040293298791339 0 0 0
225 1 1 6.587371759365713 4.492659905175276 4.700216608594246 0 0 0
383 1 1 7.743070941470568 5.872791796907014 5.008774001234544 0 0 0
362 1 1 7.57061688823196 4.705679290867367 6.128545973474916 0 0 0
265 1 1 8.743089314773494 4.823383535748111 5.354108636039553 0 0 0
267 1 1 9.79144615334143 5.147188141550996 5.16139382120032 0 0 0
364 1 1 9.035657477963044 6.103234324402955 5.851764681352182 0 0 0
268 1 1 10.168591280960625 5.775911516119979 5.826807683235564 0 0 0
223 1 1 10.77835719926497 4.927793111352554 5.356383362205836 0 0 0
214 1 1 10.554413534545002 5.953741150289495 4.695778825825057 0 0 0
224 1 1 10.448390844331852 4.490777302186741 6.14631809235913 0 0 0
327 1 1 11.610836661565038 5.708145062114636 4.820174463438235 -1 0 -1
321 1 1 6.100504381409649 6.412404281574353 5.050373785954869 0 0 0
366 1 1 5.665208595661386 7.294366228853303 5.619390024434844 0 0 0
229 1 1 7.8336268864868055 6.835891344608439 5.7711200913826755 0 0 0
349 1 1 8.711947411308339 6.7605796860294225 5.249377155928727 0 0 0
32 1 1 9.69306271784433 6.852251751416087 6.296188921309214 0 0 0
213 1 1 9.726930975380839 6.333540109784381 4.930333089866999 0 0 0
221 1 1 11.781728520083263 6.340612551571902 6.228323022914267 0 0 0
215 1 1 10.893862401807041 6.522085467797791 5.427976001113701 0 0 0
328 1 1 12.044459006118943 6.504408702732122 5.060781131691778 -1 0 -1
367 1 1 5.634406492915415 8.233360079804255 5.374651083737386 0 0 0
377 1 1 6.823222147332364 7.815443619844488 5.509629726712039 0 0 0
368 1 1 6.275554413327656 8.487810435717504 4.657873695620139 0 0 0
182 1 1 7.384414922300612 9.062403755113397 5.494165656655954 0 0 0
184 1 1 6.719634334423781 8.46463834190832 6.230831471400697 0 0 0
350 1 1 8.449142524324255 7.543034502261807 4.709383143566117 0 0 0
232 1 1 7.516010649692901 8.10178142560172 4.731964619994998 0 0 0
29 1 1 8.526029996646361 8.743576565097658 6.362128656449278 0 0 0
351 1 1 9.16800923010948 8.159093602329248 4.916006708446174 0 0 0
352 1 1 9.511506319225845 7.453951693159022 5.576264566979491 0 0 0
139 1 1 10.414579674406033 7.937231944979763 6.091519316224192 0 0 0
19 1 1 10.888719269874422 8.745564168116193 5.620366901988498 0 0 0
181 1 1 6.941282510783884 9.202279398940336 4.642646140617003 0 0 0
183 1 1 6.419630256868525 9.065219898701706 5.586392845678754 0 0 0
340 1 1 9.884690362853451 9.041536408394338 6.188466306986463 0 0 0
337 1 1 9.060201316060054 10.579268281980122 5.650740960391243 0 0 0
13 1 1 8.951431982159013 2.7461309274343906 7.4706194693841566 0 0 0
5 1 1 4.963514568244112 4.175345041132444 6.6306602237223355 0 0 0
81 1 1 4.453103157433047 4.02142872218833 7.444708849672821 0 0 0
84 1 1 6.801529789191609 2.8165869747284686 7.49267290805238 0 0 0
83 1 1 6.24990736244871 3.568407382847363 7.3143746571323005 0 0 0
358 1 1 7.334504721066511 3.643904947513439 7.072804639148887 0 0 0
360 1 1 7.088229331884217 2.6912741975064893 6.5768110359407075 0 0 0
359 1 1 7.487692772746474 3.4517604379000137 6.08984256399803 0 0 0
135 1 1 9.294244607328261 4.246263756137685 5.94722229582337 0 0 0
136 1 1 8.33264946876076 4.089622064104291 6.016268045450581 0 0 0
312 1 1 9.376591980187504 3.7141813260367864 6.9777081129581395 0 0 0
156 1 1 12.337560984705204 4.744974545187803 6.479730613749669 -1 0 -1
152 1 1 4.359339216468161 5.6065885337132215 7.338099816490151 0 0 0
324 1 1 5.21958579880092 5.175644534206749 6.56719592985108 0 0 0
151 1 1 4.86582507755084 6.14640288845171 6.694406641669636 0 0 0
89 1 1 5.913834475818146 5.882250829103554 7.0885086653710605 0 0 0
8 1 1 6.214825019294855 5.261154712088658 6.429893890379107 0 0 0
90 1 1 6.244357888053955 5.152612487556077 7.58392259499693 0 0 0
91 1 1 6.965283793979501 5.815689313591537 7.54709396826541 0 0 0
134 1 1 8.931923487911215 4.816755507867977 6.646907985200329 0 0 0
361 1 1 6.860694045357801 4.48225563897327 6.698375973080306 0 0 0
92 1 1 7.29482385874787 5.352921751219224 6.819650998398584 0 0 0
363 1 1 8.15522972401455 5.508986356346709 5.964090113862359 0 0 0
177 1 1 9.894287530920991 4.955992396123839 6.916720407523015 0 0 0
276 1 1 11.02186261384881 5.246430220503061 7.01982165957239 0 0 0
222 1 1 11.160739598481792 5.680697861693162 5.9289295717378465 0 0 0
150 1 1 4.0496529675493145 6.595890078202628 6.742515730045011 0 0 0
322 1 1 5.865787859457352 6.184617071795412 5.993991284153597 0 0 0
40 1 1 4.982745565810242 7.462168802656553 6.856298277294878 0 0 0
379 1 1 6.647981199585648 6.7233303846417085 6.488970982821515 0 0 0
346 1 1 6.60602176510089 7.223588639010487 7.5577512629697 0 0 0
345 1 1 7.538707332900868 7.509601244176113 7.53458782838944 0 0 0
380 1 1 7.578903142265411 6.744205832776819 6.921480903359042 0 0 0
180 1 1 8.784481551933228 6.178762949568843 6.879071960542443 0 0 0
204 1 1 9.811589174033534 5.995502077659397 6.774292099167612 0 0 0
31 1 1 8.819838507136977 7.158868486114009 6.518993313618219 0 0 0
138 1 1 10.722772371192743 7.662739402983271 6.978972871539593 0 0 0
216 1 1 10.938782178908445 6.838242069131119 6.3763439580112475 0 0 0
201 1 1 11.701808455284135 6.469530518362036 7.347053741832269 0 0 0
21 1 1 4.093665862282225 7.728260820501463 6.5564482112231905 0 0 0
365 1 1 5.98070040143284 7.443705609605029 6.545594005390812 0 0 0
348 1 1 5.755423959071501 8.105760814463359 7.176377244227755 0 0 0
39 1 1 5.014435608269305 8.127863559954232 6.188038289014279 0 0 0
38 1 1 5.4823256777494445 8.887028622585227 6.510041557136855 0 0 0
378 1 1 7.1834265159144595 7.553670249263178 6.352431349259196 0 0 0
347 1 1 6.7398949766683085 8.166487025086685 7.429111696595749 0 0 0
45 1 1 6.486752871864191 9.224173811930337 7.403497752438853 0 0 0
30 1 1 8.105832403883708 7.859556648968 6.424977686888931 0 0 0
46 1 1 7.302308950837166 8.943209306948741 6.943789988135673 0 0 0
233 1 1 8.768313055793206 9.217936038306132 7.285372585888972 0 0 0
62 1 1 8.60850844155504 7.582919468730948 7.419209603499911 0 0 0
17 1 1 10.753331042669698 8.731566709773492 6.817643067011498 0 0 0
137 1 1 9.896906008552106 8.16381614328746 7.0337636980430265 0 0 0
140 1 1 11.325402196003845 7.727439583956603 5.899841348314938 0 0 0
20 1 1 11.75254281362035 8.520884867185691 6.172238653377513 0 0 0
161 1 1 11.512760374698578 7.5434756407464825 7.822004172702316 0 0 0
37 1 1 4.7604025704442865 9.535456573634136 6.5753749099114644 0 0 0
386 1 1 5.656693469117849 10.113355564951675 7.16783596635111 0 0 0
385 1 1 5.1773358407710255 10.788571460106008 7.623354690077074 0 0 0
48 1 1 7.31890753785069 10.163927750536132 6.027959595675079 0 0 0
47 1 1 7.947066023927013 9.624189757611724 6.526062561947631 0 0 0
339 1 1 9.149515957304466 9.62207260707509 6.294791095644534 0 0 0
36 1 1 10.069994123819619 9.320267488046202 7.066059478088371 0 0 0
338 1 1 9.903406394958346 10.16021362186502 6.130478747941534 0 0 0
392 1 1 9.095809533995784 10.237166742563694 7.278049063355831 0 0 0
18 1 1 11.146121510953758 9.40502715424559 6.282892390492398 0 0 0
35 1 1 10.870759818900565 9.760515678577198 7.2738039395759 0 0 0
34 1 1 11.487279095928526 9.034260521212655 7.650399103737884 0 0 0
387 1 1 6.527843426692021 10.295429060611006 7.259665425919715 0 0 0
132 1 1 7.338855421678508 11.953979178570417 7.827279304759239 0 0 0
104 1 1 7.566667241015873 11.470295325609726 6.913105521474127 0 0 0
102 1 1 8.246941025649399 10.5386418075371 6.6902097528167435 0 0 0
103 1 1 8.103238003124659 11.305173561955431 6.119299114539733 0 0 0
270 1 1 9.994244776577583 11.930899711823185 6.7100654339665295 0 0 0
271 1 1 9.47238818519112 11.096302357836283 6.550883866254669 0 0 0
272 1 1 9.312142053065442 11.431771816182769 7.429357843150286 0 0 0
122 1 1 11.68565737768284 11.237700471101151 7.144507963691845 0 0 0
123 1 1 10.714175590702222 11.376799947491442 7.3009674755904435 0 0 0
121 1 1 12.436429964798313 11.086405551070651 6.61772936875546 0 0 0
269 1 1 10.80611110894069 12.446565320595935 6.423894317182485 0 0 0
186 1 1 8.264669496579272 2.7305049278764635 8.82435878702543 0 0 0
185 1 1 8.157432998239933 2.066692386523518 8.117283551884652 0 0 0
82 1 1 5.416069811756368 3.9454594627686888 7.601926081495824 0 0 0
287 1 1 7.279027243849381 4.038806264526341 8.138932244039932 0 0 0
357 1 1 7.850724283541592 2.9215247227107097 7.355843829459047 0 0 0
14 1 1 9.01180690245328 3.222179977891244 8.355335724271233 0 0 0
286 1 1 6.860491318950006 3.2823297677340446 8.55544653554104 0 0 0
15 1 1 8.276094969765097 3.7568885439508253 7.9024030115816934 0 0 0
16 1 1 8.968803088304554 4.177581506378664 8.491589016855668 0 0 0
311 1 1 10.10101805828457 3.961693269656639 7.5471795746215085 0 0 0
310 1 1 10.154227360840395 3.5259845069442433 8.387023216201895 0 0 0
209 1 1 4.447932556076638 5.216959749210575 8.209189197597206 0 0 0
210 1 1 5.192880806138866 5.043418817781644 7.574163592062357 0 0 0
211 1 1 5.348489537359099 4.615382713621518 8.442822875813178 0 0 0
212 1 1 5.550245322099931 5.635299210822623 8.459398844630186 0 0 0
288 1 1 6.361775004303508 4.265673219045492 8.240792656931847 0 0 0
53 1 1 6.837072821940977 5.160584384366821 8.463749474300489 0 0 0
240 1 1 8.049538849114235 4.870048832824508 8.678188442763714 0 0 0
133 1 1 8.165479561947766 4.983358926192761 7.175043968739344 0 0 0
239 1 1 8.835536912227523 5.286969241729655 8.572736836398136 0 0 0
178 1 1 9.345454518005308 4.813357628065894 7.663831902463192 0 0 0
179 1 1 8.848360880861204 5.653787068119486 7.683997919548526 0 0 0
99 1 1 9.886592215983898 5.622925268068454 8.591247130318905 0 0 0
264 1 1 9.84341521481876 4.5787798395997195 8.679004237328273 0 0 0
274 1 1 10.832280104479107 4.609559480387977 8.052831633741608 0 0 0
275 1 1 11.117632189418893 5.48717246833084 7.919070072583918 0 0 0
273 1 1 11.631930241405088 4.792325639830052 8.53406645887566 0 0 0
149 1 1 4.466343450531797 6.661551919323645 7.603895492062639 0 0 0
194 1 1 4.5871044565629235 6.238133757789282 8.606305357676895 0 0 0
78 1 1 6.263272265382769 6.408079302795829 8.049625526068615 0 0 0
77 1 1 5.38224406606667 6.565205159478834 7.806002694598859 0 0 0
24 1 1 5.214171581605857 7.610721732654667 7.964991264298362 0 0 0
193 1 1 4.310345509523293 7.190444745451571 8.638740132722068 0 0 0
56 1 1 7.304277158370975 6.6653758252359125 8.18205286786538 0 0 0
79 1 1 6.395539617271611 7.188665065812735 8.607926353601659 0 0 0
63 1 1 8.315049739015134 6.7309104919858935 7.697783672776104 0 0 0
237 1 1 9.015342281152893 6.338260944665316 8.470242576076014 0 0 0
64 1 1 7.911569990647933 5.883461646166987 8.09047662930643 0 0 0
203 1 1 10.219973790505975 5.851178561270042 7.616737905725378 0 0 0
97 1 1 9.409836081578149 6.564964446106066 7.601042606078078 0 0 0
98 1 1 10.08142242774848 6.520856430535517 8.326340698599644 0 0 0
163 1 1 10.054722085073259 7.373101218973564 7.803117045400641 0 0 0
60 1 1 9.982132933053862 7.327173478482352 8.96102363521449 0 0 0
202 1 1 10.764890036062077 6.612547144439044 7.460309780220646 0 0 0
2 1 1 11.44447447950995 6.329377428763203 8.439447043421994 0 0 0
22 1 1 4.054065007587917 7.573694982844165 7.499709579408582 0 0 0
23 1 1 4.4681909920352885 8.202879033407374 8.12146527432149 0 0 0
296 1 1 5.815014087054405 8.435692068116989 9.193395608549125 0 0 0
344 1 1 4.664713824213165 9.548723853209928 8.741576414780372 0 0 0
80 1 1 6.644874380979219 8.09308116081602 8.464683208350467 0 0 0
341 1 1 5.721613231418453 8.797909553585955 8.302937183543145 0 0 0
61 1 1 8.867279567221361 7.529465069273557 8.356404405820717 0 0 0
283 1 1 7.554231720530133 8.334293134284431 8.470121034009427 0 0 0
234 1 1 8.195376538852097 8.505619714235442 7.631295545998115 0 0 0
284 1 1 8.231673294271669 7.918222110019124 8.908320413664056 0 0 0
235 1 1 8.804627594976754 8.868894870262865 8.375267826403821 0 0 0
164 1 1 9.925309538175489 8.291607421952632 7.960678849329508 0 0 0
390 1 1 10.305077128072606 9.448369759357439 8.201774995896878 0 0 0
162 1 1 10.891350597304843 7.2590570559173 8.471708886118986 0 0 0
33 1 1 10.895749284952638 8.30923575290932 7.917683956459003 0 0 0
200 1 1 11.463515024246695 8.850515495750404 8.672257440798084 0 0 0
394 1 1 12.222508272386246 7.396993163255671 8.77443476397885 0 0 0
117 1 1 12.566614229051345 7.475247506457727 7.573730954199531 0 0 0
118 1 1 12.518485449229557 8.27312207695068 8.109576210903013 0 0 0
342 1 1 5.083458460676656 9.076419614001113 7.661065750086104 0 0 0
72 1 1 5.967952692257939 10.897901613972746 8.3323627234151 0 0 0
343 1 1 5.344916539992543 9.807865049196927 8.205905458262922 0 0 0
388 1 1 6.351813709994836 10.025023488585695 8.18326897663267 0 0 0
282 1 1 7.165172958982581 9.118795067942928 8.108437237574886 0 0 0
369 1 1 7.3400676899735675 10.158755120570449 8.687713894178199 0 0 0
101 1 1 7.551471125286898 10.40041562886686 7.2940820170762075 0 0 0
281 1 1 7.935977429367954 9.557235157142184 7.658398778961677 0 0 0
370 1 1 7.92644656428163 9.431689378244707 8.679255258245025 0 0 0
371 1 1 8.48820977237503 10.18244235083362 8.277145754632661 0 0 0
372 1 1 8.87152501917588 9.977390051459512 9.14810609921807 0 0 0
391 1 1 9.451827704662184 9.693041087759932 8.010655762475963 0 0 0
125 1 1 10.25649709839259 10.43700412891977 9.395812495506975 0 0 0
389 1 1 11.005085452197404 9.984883888181567 8.577319068801174 0 0 0
124 1 1 10.934862322091895 10.742855620562034 7.9909812346846225 0 0 0
119 1 1 12.415627938484523 9.17049178024222 8.528110187587188 0 0 0
120 1 1 12.53025663893582 9.770791109920406 7.746744423976837 0 0 0
69 1 1 3.560483778601366 10.875391171659752 8.725322989388994 0 0 0
70 1 1 4.46234903493059 10.958120418818067 9.074430884733715 0 0 0
71 1 1 5.388167750429686 10.621106782225803 8.99377781818441 0 0 0
129 1 1 5.529772419145648 11.825298067083548 8.924932373914192 0 0 0
131 1 1 6.751373178734935 11.238109226402221 7.879536248814295 0 0 0
206 1 1 6.639888816128764 11.609315875293515 9.180755084541383 0 0 0
189 1 1 8.500301166121794 11.0007109071083 7.649227290932615 0 0 0
353 1 1 10.001374541684516 10.469102705103154 7.617527561030888 0 0 0
354 1 1 9.920563723014032 10.975529068807733 8.496788925094357 0 0 0
130 1 1 6.222191753380651 11.993104499005037 8.276454257617994 0 0 0
205 1 1 7.360207538320844 12.202705994575913 8.858416733283725 0 0 0
190 1 1 7.8528039167215375 11.090376426221196 8.36001831916162 0 0 0
355 1 1 10.417367639459043 11.783178177907963 8.677532471268895 0 0 0
356 1 1 10.014553797616461 12.153016769012151 7.93860544782197 0 0 0
187 1 1 9.096591249952523 2.7881640127213525 9.416193290183296 0 0 0
107 1 1 4.16546129785022 4.021899913520323 8.755573317583544 0 0 0
106 1 1 5.04790845911646 3.892352619583305 9.087298438405442 0 0 0
105 1 1 5.932082803024835 4.09161150789771 9.338008649485039 0 0 0
285 1 1 6.906403425556521 3.978018779266315 9.212084725581969 0 0 0
333 1 1 7.972102580940001 3.9234979562308308 9.118641047412074 0 0 0
188 1 1 9.064906785662032 3.431216436482221 10.109551623331088 0 0 0
309 1 1 9.808391085185523 3.7054516392936914 9.256830312371946 0 0 0
108 1 1 4.3247425475282295 4.669020931924779 9.44044715314069 0 0 0
217 1 1 5.18110971005456 5.06779291972788 9.299964348953576 0 0 0
218 1 1 6.134505182717443 5.295037201720341 9.342367103676796 0 0 0
54 1 1 7.062263428206962 5.401376503889394 9.396455954146928 0 0 0
68 1 1 6.677589007642081 4.465230156285116 10.20135342117447 0 0 0
76 1 1 7.575219128961447 4.634250305417345 9.612197074905652 0 0 0
67 1 1 7.0332402267156775 5.324934871426115 10.444715820078919 0 0 0
334 1 1 8.626491538282885 4.461911367378368 9.577600329114349 0 0 0
52 1 1 7.978052234241143 5.693621668585729 9.23010124898394 0 0 0
238 1 1 9.169069532963926 5.847683414293649 9.284030167966039 0 0 0
74 1 1 8.255121980734664 5.362857719483058 10.183163189572229 0 0 0
336 1 1 9.701231178746307 4.877848774954139 9.770920334040992 0 0 0
100 1 1 10.40251799770415 5.914437943418131 9.385588731199375 0 0 0
335 1 1 9.060869076275411 4.65581371294759 10.43684592291027 0 0 0
159 1 1 9.299649228709013 5.84306995773943 10.466435499586854 0 0 0
263 1 1 10.679868579767701 4.411564733740355 9.152153082856113 0 0 0
262 1 1 11.432670495031742 4.322808253017219 9.715851973189915 0 0 0
147 1 1 11.969204347983098 5.9930655132437805 10.469350792842672 0 0 0
3 1 1 11.346032989818287 5.701183085057026 9.148660464674117 0 0 0
261 1 1 12.003798296362856 5.056651538484303 9.860222513250083 0 0 0
294 1 1 4.085272452310171 8.077533984568687 9.320094601187742 0 0 0
219 1 1 6.236026438942965 5.927994365424442 10.047495067315898 0 0 0
195 1 1 4.655693194041575 6.556600617360428 9.542076841787424 0 0 0
196 1 1 5.501559546024482 6.718977164466339 9.004655755663945 0 0 0
374 1 1 5.819876932623156 7.430261114665032 9.89666549963224 0 0 0
373 1 1 6.671526143924989 7.011529225137054 9.688385895235829 0 0 0
55 1 1 6.832718343288356 6.291462427599056 9.032499831195102 0 0 0
50 1 1 7.434264649150261 7.368166246417396 8.972208048053696 0 0 0
66 1 1 7.281317140257414 6.208446995911973 10.237005771262433 0 0 0
51 1 1 8.095967072386482 6.718137504534538 9.13676564581237 0 0 0
110 1 1 8.62247147415104 7.300081742080868 10.01447867399165 0 0 0
157 1 1 8.324963042942743 6.329518334892236 10.33696735833054 0 0 0
109 1 1 9.260068304878967 6.923897774435779 9.421608376217783 0 0 0
160 1 1 9.979917674908473 6.366916130599063 10.126064772163744 0 0 0
4 1 1 11.17017379258309 6.578463673944642 9.341115327066968 0 0 0
393 1 1 11.486748621293104 7.532146857574745 9.348832656010511 0 0 0
1 1 1 12.286560559712123 6.3688416283819596 8.78245066342087 0 0 0
146 1 1 11.81697163208402 6.876337072011004 10.220676094867608 0 0 0
293 1 1 4.577750677493411 8.892955859161932 9.376773493806825 0 0 0
295 1 1 5.00661505363212 7.826994088697184 9.071489996475515 0 0 0
375 1 1 5.215320554347544 8.095653953469386 10.07487720627031 0 0 0
49 1 1 6.913502621084311 7.963390011046925 9.475691072626855 0 0 0
250 1 1 6.9000738433915245 9.083012519229799 9.434171857642003 0 0 0
112 1 1 7.286200586348227 8.05843353536075 10.558495931845899 0 0 0
249 1 1 7.553507449837383 8.799039997580694 10.050367003981414 0 0 0
170 1 1 6.260538189966571 8.183461566968223 10.590514706761345 0 0 0
171 1 1 6.826116323254707 8.884603533238925 10.911366733415077 0 0 0
111 1 1 7.66361387574822 7.369614611319446 10.041217830515212 0 0 0
236 1 1 8.802301836885 8.93144525832313 9.335820288728703 0 0 0
93 1 1 8.588900417154498 8.253271640622149 9.966884901597883 0 0 0
59 1 1 9.371886474469838 8.032301404904253 9.172600261942007 0 0 0
57 1 1 9.837970200699031 7.587612523647245 10.036818486847531 0 0 0
58 1 1 9.618104048079658 8.50731491875809 9.945488742858153 0 0 0
300 1 1 10.808552760232828 8.222318645526919 8.97275932056404 0 0 0
299 1 1 10.95532968290667 8.183942657217312 9.906505830225361 0 0 0
395 1 1 12.262656545756895 8.238845650649521 9.246076962798028 0 0 0
396 1 1 13.167632593350161 8.033299871587776 8.919943076985598 0 0 0
243 1 1 5.617306611410028 9.26236607088179 10.128913890643584 0 0 0
242 1 1 4.749411865081123 9.653411865543767 10.136944250314546 0 0 0
252 1 1 6.563720674738656 10.401812838352413 9.19493445621024 0 0 0
251 1 1 6.032763443091847 9.563523590523625 9.090661296441885 0 0 0
302 1 1 6.5338396656299365 9.789904619157232 10.211536941471156 0 0 0
301 1 1 7.454364461611069 10.275174179344388 10.297891033440457 0 0 0
397 1 1 8.693478868580993 8.871682175663704 10.698754977623999 0 0 0
398 1 1 8.625060825565885 9.713024301296805 10.253038174846191 0 0 0
399 1 1 9.50398384846765 9.546138574685697 9.986387547914175 0 0 0
400 1 1 9.654275063139009 9.437776032861498 9.035882379902564 0 0 0
126 1 1 10.445623490064639 10.209069803097554 10.29685533281952 0 0 0
298 1 1 10.557970510685177 9.112552600862982 9.7537501504243 0 0 0
199 1 1 11.671486546457588 9.131773466578593 9.620197765863903 0 0 0
198 1 1 11.23371308964664 9.504142910321393 10.37946146729644 0 0 0
116 1 1 12.142216822431307 10.318489988342625 9.523361029556481 0 0 0
303 1 1 6.430068868553053 10.754377144122348 10.32850652976271 0 0 0
289 1 1 7.399200203069004 12.30041588887603 10.203172382334849 0 0 0
304 1 1 6.7126422581129725 11.666769170065923 10.249044517042922 0 0 0
208 1 1 8.022411981355013 10.620556428029618 9.27095188241099 0 0 0
207 1 1 7.373552317439027 11.207634711879317 9.663811802118675 0 0 0
290 1 1 8.1488595507065 11.738982861596016 10.17905311819586 0 0 0
291 1 1 8.400073139479504 10.87614213565355 10.542452128260283 0 0 0
192 1 1 8.95813830139615 10.949437584099028 9.188382790074082 0 0 0
127 1 1 9.637526692565256 10.717235104379048 10.307050288532574 0 0 0
114 1 1 10.988421786747367 11.18223825700888 9.184745453270562 0 0 0
113 1 1 11.078417429146377 10.957769682346813 10.098669080232547 0 0 0
115 1 1 11.707205897113555 10.703223952545327 8.725767679471524 0 0 0
191 1 1 8.309915829604618 11.634397655711041 8.990633820857106 0 0 0
332 1 1 6.083300254270558 3.855062168505872 10.70970392558071 0 0 0
12 1 1 5.242860708113709 4.796377155176872 11.442181078015977 0 0 0
331 1 1 5.935791614045249 3.8641723532429957 11.669303043319097 0 0 0
11 1 1 4.695697904349909 5.544901154110534 11.184783089960247 0 0 0
10 1 1 4.750095353032361 5.818976204190272 10.21156104824023 0 0 0
9 1 1 5.507132582130273 5.238410141494938 10.466139038791011 0 0 0
320 1 1 5.7883971258828355 5.795794433919537 11.325521165097754 0 0 0
329 1 1 7.274401296650938 4.936403281165931 11.362246664440455 0 0 0
330 1 1 6.384854423625407 4.654811814071658 11.345047403865419 0 0 0
142 1 1 6.781064149706841 5.78326276152815 11.96200686870797 0 0 0
75 1 1 7.892475451125609 4.499693895670047 10.485028412943986 0 0 0
73 1 1 8.401265780464769 5.410801403750923 11.119066627533803 0 0 0
258 1 1 9.287275810745834 5.756687426896989 11.842433273490705 0 0 0
148 1 1 11.194551475422692 5.5607425720095165 10.886680889964035 0 0 0
220 1 1 5.564423202273069 6.3865808830632025 10.472786720717565 0 0 0
308 1 1 4.395428594808812 6.4725492329766965 10.89706969065369 0 0 0
307 1 1 5.147549353831754 6.676420704999283 11.475352346038475 0 0 0
306 1 1 5.614468535267396 7.39616944770847 11.00022786410288 0 0 0
305 1 1 6.288007658224011 6.773282435026336 11.460709459637421 0 0 0
65 1 1 7.579641913735606 5.9106680045016775 11.111594719260776 0 0 0
96 1 1 7.31060617265928 6.846475419254555 11.713858668008873 0 0 0
257 1 1 8.520342773688233 6.363726095225478 11.653280212513895 0 0 0
95 1 1 7.9731408291307755 7.075085681949497 11.001585734688891 0 0 0
158 1 1 9.145111526725705 6.730576767684947 10.70233286768424 0 0 0
259 1 1 10.096923039857614 6.0243754880337645 11.38758832568984 0 0 0
253 1 1 10.375892652881006 7.267365606253552 10.838431888525427 0 0 0
145 1 1 10.94455737743888 6.540860416286169 10.601405700249831 0 0 0
376 1 1 4.539639057678078 8.099243686855132 10.721762221973552 0 0 0
169 1 1 5.590866484106949 8.506344966682681 11.165882238880846 0 0 0
165 1 1 6.8494773602658166 7.090554900556415 10.679389563792135 0 0 0
166 1 1 6.744183445271994 7.615068606441501 11.480396693311993 0 0 0
167 1 1 7.630684115278109 7.927525017521868 11.676008199975142 0 0 0
94 1 1 8.246190945885346 8.004203115086362 10.812383695944506 0 0 0
256 1 1 9.328683943923858 7.932490270085049 10.82909298298693 0 0 0
255 1 1 9.866859707769772 7.908898337251795 11.602532878228173 0 0 0
88 1 1 9.652279001243675 8.9426162161881 11.286913309521882 0 0 0
254 1 1 10.38488512206375 8.16585732034756 10.841574754674383 0 0 0
315 1 1 11.430158679945627 7.772245180331179 10.805886782384372 0 0 0
316 1 1 12.120035574591892 8.164449390874394 10.241104157456006 0 0 0
241 1 1 4.644275824517768 9.357890159862613 11.04018160066031 0 0 0
244 1 1 5.688366709555828 9.442752375230942 11.106476341745639 0 0 0
174 1 1 7.91746959982366 10.086357145942573 11.618703701218273 0 0 0
172 1 1 7.750930084043464 9.157015875050247 11.001371977383258 0 0 0
175 1 1 6.984879545574512 9.790898046570177 11.487548605288362 0 0 0
176 1 1 6.357131901525454 9.229961834608313 11.997225279228742 0 0 0
292 1 1 7.559682170201929 11.061516683506063 10.826917890456478 0 0 0
173 1 1 8.466482841314875 9.221740659196453 11.665061917984652 0 0 0
87 1 1 9.448710305681939 9.861726460755804 11.109814474052035 0 0 0
86 1 1 10.307657117481524 10.025205735234293 11.47368768713101 0 0 0
297 1 1 10.35855205046391 9.196427110308786 10.753614206969498 0 0 0
197 1 1 11.501921755415829 10.278021648188682 10.967808746295047 0 0 0
246 1 1 11.002247752715759 9.099814638334449 11.554704244396023 0 0 0
248 1 1 12.28425380489971 9.550372016366277 11.164903672745417 0 0 0
128 1 1 9.480599355437194 11.624374853726462 10.55244143588759 0 0 0
85 1 1 10.307744655827191 10.94005371119598 11.106667896129435 0 0 0
317 1 1 5.18686981907563 4.635820936782673 12.339842579467964 0 0 0
25 1 1 7.085411575733593 4.281148899855755 12.056049068540334 0 0 0
319 1 1 5.49006134884844 5.637158026192467 12.254302429880799 0 0 0
318 1 1 6.056971290573067 4.936276315400531 12.364664462139867 0 0 0
27 1 1 7.1646132774366285 5.212737047639921 12.710992771196429 0 0 0
28 1 1 6.979892722112125 6.005319000947969 13.10528897385741 0 0 0
26 1 1 7.928230691912677 4.77868825802848 12.294036070650455 0 0 0
141 1 1 7.685912340022458 5.894240525348426 12.09626219833668 0 0 0
143 1 1 6.309186549072897 6.573466713027458 12.405777069521138 0 0 0
144 1 1 7.084777164681782 7.056075649818578 12.68131297938228 0 0 0
277 1 1 8.707358092432585 6.311763431177943 12.608827542843903 0 0 0
278 1 1 8.212717145746844 7.1405391045237705 12.497764656383694 0 0 0
280 1 1 9.462977735256565 6.745282107008209 11.956041946869593 0 0 0
260 1 1 10.468662370555982 6.814821066410688 11.759477290484279 0 0 0
279 1 1 8.842030964135365 7.41660509517531 11.818246926692023 0 0 0
245 1 1 10.499454959419756 8.527161667765197 12.103546990202702 0 0 0
313 1 1 11.062656040516146 7.721393646799605 11.853629730376907 0 0 0
314 1 1 11.908314910632708 8.107662413453788 11.554119085828344 0 0 0
168 1 1 7.109637499758625 8.702752650352613 11.956112556630663 0 0 0
247 1 1 11.93545076818231 9.107385070964847 11.892213588449103 0 0 0

Velocities

44 1.7097888215711785 0.3160866551476016 0.26419934887736624
325 -1.0094877993261127 1.1193165007074217 -0.14343505303108664
226 -0.28868865269718186 -0.1461268841155759 0.8367141415501592
266 0.2833357073146754 0.016861012885550683 -1.0790689961396165
326 -1.9064137838958821 0.3627180584051467 -0.13483630510018949
230 -0.9265444257324003 0.998948999849913 2.0400627978035795
384 -1.350282532073434 -0.6945065722515329 -0.5868173748968548
231 0.1655973624161331 -1.7661309723144385 0.8005954377807646
6 -0.7520357575601748 2.0674109088845802 -0.38928414622677426
7 -1.542262449390544 0.48645355439825616 -1.1231800595262165
228 -0.11314577303284959 -0.16909187935225994 0.6791842214329337
227 0.8450585307459682 -0.12361008718674901 1.333885114507279
43 -0.2602503597026641 0.04509524871564537 0.9330675941933119
41 -0.46961331585194727 -0.11941520219849028 -0.12164337682790444
42 -2.1333744855456165 0.32802874077337024 -0.22257277486556623
155 -0.8657688444318306 1.2986705329105641 2.288787315171422
154 -1.1572451674331032 0.61443108897201 -0.7603333670297621
153 -1.0212084310343246 -0.06864176302266027 -2.0862100985805547
323 -1.1860277323850383 -0.9262712477281284 -0.6325761439871778
382 0.4970548694735189 -1.019691332443883 1.8199139978450924
381 0.49828929971615343 0.04017235235812536 -0.5118831531627672
225 0.5008645408604381 -0.6292286986371114 0.14539523927990938
383 -1.0361892627518587 0.38845753916497877 -0.42488940106481626
362 -0.1056226062103345 0.48009145367110323 0.6135917007937919
265 -1.2856655445328655 0.9579994456125024 0.6351450531426994
267 -1.8836236948326945 0.13109496223650158 -0.5645224707993978
364 -1.5920400840812061 0.40151275240755463 0.03448043248836677
268 -0.7974661237020736 0.009869840261752657 -0.966493824338255
223 -2.6022290078251498 0.5285989907347327 0.27805600416394316
214 -1.2839853451507124 0.9996046712600708 0.9556847713953635
224 0.14218704063454046 0.2674740772404804 0.7279837066848462
327 -0.10244678876044508 0.5145968820667064 -0.5058292568783339
321 1.1178055519082146 0.8565424518685572 -0.5355001986958653
366 -0.3178149543602643 0.006327950263277198 -0.18359141324186773
229 0.7513908398193292 -0.9420903196029035 0.40574947862139066
349 0.034807490711266514 -1.2832263334900793 1.0836529293129964
32 0.9821206201534372 -0.2956494140530499 0.8561102467451386
213 -0.755918305570562 0.8869821998755059 0.5484596716219503
221 -0.8333503060054622 -0.21273745039874004 0.9565489605889026
215 -2.0927817161657485 -0.8246678575873275 0.4733042678423536
328 0.9890523279347974 1.3559741420904508 0.7270486183836105
367 1.919876016046547 1.589311622738793 -0.7653604117142061
377 0.47438121509096354 0.2596600070380609 1.747827650390548
368 0.55866159785865 -1.1400963096980297 1.3160081545584148
182 -1.0824552676828363 -0.7399123741626273 1.2180567681759855
184 0.40220778190925244 1.0155548793495752 0.22665818868029874
350 -0.791481959078924 -1.6156329035036872 -0.9341836213924766
232 -0.8885890317453229 -0.005425239724781308 -0.003921579204692798
29 0.10914450102232373 -1.4685489109884908 0.679762496467651
351 0.6746644178917975 -1.1760129098216285 -1.1372024971732089
352 0.32735549135792036 0.7762350588251463 -0.1977332403430272
139 1.3274701116314007 -0.6334631245828461 0.45033753027428036
19 0.9952156611932774 1.1076132077261545 1.3994454840298456
181 -0.32121647762376215 0.8181542143095096 -1.8761802502331457
183 -0.821079414624153 0.09744660924274731 0.8245137375390597
340 -1.4474307520757912 0.40059272965012727 -0.05516705937158245
337 -0.9802554034949974 -1.0039167578704304 0.13520348152410205
13 -2.0817122578960623 -0.7213057802008791 1.6805320246871471
5 -0.11948802885000279 1.8158701223537606 -1.2575139531047004
81 0.11231717427820948 -0.19325827603895387 -0.44704413137238413
84 1.4581826087216003 -1.0796007965662797 -0.28681243220431085
83 -1.3749081898073012 0.8041049627069192 -0.43128143392191043
358 0.6128518137360265 1.1176459363461277 -0.4616502575636682
360 -0.48986707960293996 0.4411593403164862 -0.5510047998428519
359 -2.109316088687677 -1.5044180711760975 -0.3137983076457159
135 -1.768349112654788 1.1360515058672034 -2.7056864791858466
136 0.19292930938823807 -0.27194017160434847 1.2008967712961998
312 -0.380193372049772 0.9642474260451233 -1.0555211529271795
156 -0.3344327481628789 1.0662810542681753 0.13067389676616803
152 0.38178691052669905 0.9422947832178832 -0.3982597461244918
324 -0.965436444561145 -0.33441250036803877 -0.03278508633996172
151 -1.8267346608625286 0.5048624018958319 0.8798362912240428
89 0.0979980838855842 0.4990619250391748 0.31722674108618487
8 0.8033372877097382 -0.3447092907886002 1.2061946141932904
90 -0.7565323194861615 0.961843491511879 0.0966017472491945
91 -0.8385604874422051 -0.39761408617171046 1.1028020818222213
134 0.3964488902817615 -0.18282464765505418 -0.7419923765421724
361 -1.5551734264496675 -0.7214006743588554 -0.3605459067119893
92 -0.10300317271582526 0.2736008434648116 0.44656840918222557
363 -0.6095940692366671 0.560166524294594 -1.9410448029410257
177 -0.5395489389196526 -0.8506861118608086 0.7382124921425472
276 0.16581346654561804 0.602229761884523 0.6887361098465626
222 0.24771441990199258 0.8825292241567582 2.7129983957476997
150 1.3137342934135559 1.814784816993831 -0.5216215076315878
322 -0.8172728244691287 -0.5447554500996807 0.45516338583796245
40 -0.2576437458349039 -0.5083711868170453 0.0523616280979629
379 -0.7625619640067409 0.8304811522007576 2.2979575173038334
346 -0.023294819526816713 -0.32635853800271764 -1.5996276393773332
345 -0.3249266803907136 0.44772026624973016 -0.4705886704310914
380 0.2653043606917143 0.2851980483948588 2.4426588939351004
180 0.24902351824869887 -0.08747230707979581 -0.0009948324139354267
204 -0.027337258890968906 -0.847126775705958 -0.6867480921118082
31 -0.45991678875980807 -0.523552476980275 -1.1960827143490047
138 -0.5740375220486377 1.3075566856163896 0.7813065818280143
216 0.16221635972523657 -1.6008179353887415 -0.09416064360206053
201 -0.96004675709625 0.9024604071794313 1.4922505513864468
21 0.766784696329189 -0.04408142556059069 -0.722261391395787
365 1.5339291827003037 -1.0494346472086098 -0.9125007956244384
348 1.9745408722300533 0.6432341037862009 0.03914055560053727
39 0.14069606565510645 -0.11986279642904982 0.38404588969315817
38 -1.0293807922339029 0.6668385639418353 -0.4453368773395476
378 -0.459356069553529 -0.5158286409877832 -0.15391741704544637
347 -0.9535685579421965 0.09690613255432658 1.5363295055303032
45 -0.3667906416823046 0.9214578570463376 -0.3469763489319452
30 0.017068448045870304 -0.3042887703052197 0.6118904715530397
46 -0.7664174057955565 0.7222934013181568 -0.727914922612323
233 -0.9375226652842532 -0.5326582687321112 -1.3173449541145232
62 2.3577592321272682 0.8870377586456397 -0.29866928294520584
17 -0.0307106026900545 -0.5334797331996056 0.30141630183971657
137 -1.2996537233350127 1.394213306190904 1.2310200893157195
140 -2.640225531841182 -1.637805396527741 -0.12786698587327452
20 -0.5534282661987707 -1.4215159927224834 -0.25664644210292614
161 -0.165306913894099 0.26110813720767917 -0.1705467600268441
37 -0.27537197446919814 -0.0024297732869461657 0.6919774814010847
386 -1.6051353609764576 0.7969668483417955 -0.08718520937774381
385 -0.05640075394316172 1.1353922730737214 0.8265879358670569
48 -1.010800946478605 -0.35546418847887484 -0.25634355114521945
47 -0.859370907573049 -0.31927177114304184 -1.049682096731978
339 -0.23744936139134573 0.43953895087383005 0.6607083270621605
36 0.46241553065901225 0.47951378672415934 0.8746702690652044
338 -2.175785817066731 0.06101100080359649 -0.9820330254536034
392 -0.11447470306671599 -0.3416584681912371 0.3568038262701614
18 0.14726948832965836 0.4299570913037574 -0.9654914389015029
35 1.297183386751631 0.9478222828925152 -0.8086549098181205
34 -0.6211905376545764 0.5019117549641607 0.1943370931036967
387 -0.10931260332555758 -2.008189637827551 0.4115842788756193
132 0.38590912515840825 -1.196755904807607 0.8860046601340636
104 0.6137324937780607 0.978181666192738 0.8165180147596333
102 1.1762369977524096 0.6210859262738714 1.0773417187424181
103 -0.8910278267569901 0.19042700779755206 -0.7801358691664726
270 -0.23445553451294074 0.40318528745809085 -0.5720809759543714
271 0.11709767131745531 0.8616783684353421 2.150556615393624
272 0.23635748366832213 -0.3416298856310493 -0.5459043680712542
122 1.010260020391498 -0.3939878883906428 1.5483023689072157
123 -0.5754930103562861 0.6060885726732049 0.31479380485827874
121 -1.1611048351591071 1.0854895746532065 0.34334247125851125
269 1.1322087096624953 -2.1042021539521647 -0.14301228219778928
186 -0.14388878417816442 -1.3221602310618714 0.9507753557736508
185 -0.3994627934019773 -1.6141348574226346 0.572226449561666
82 -0.7224123339023305 0.9605858127433137 0.2276796301441461
287 -0.23433832164184154 -1.0323161219217252 0.09827158097973768
357 1.5432051272066425 0.09714363262904963 -0.7421375870181236
14 1.3092949986627527 -1.6389235322324007 1.5171468041641953
286 -0.5422120319348261 1.1273419598954544 0.04941559261019311
15 0.1797976822325966 -0.5287430676917997 -0.30661656094427214
16 0.06214177072227724 0.5028171692086617 -0.024513318923680853
311 -0.7627953415537699 2.156094354473238 -1.6746698515993101
310 -0.7592523021557914 0.2614062340393822 1.1628350076543434
209 1.811588454337266 -0.052248726476241944 1.068440498507026
210 1.121777211301443 -0.7622507768573206 -0.21216798923202843
211 0.5633634311186055 0.2337303718136191 0.6196757734205149
212 1.3680400982864496 -1.3548684818150873 -0.9595026701467169
288 0.6665670911600428 0.31478447566749435 0.6923981210407881
53 -0.9841129229728824 -0.11491893915386261 0.971545668812538
240 0.03364925858266618 0.42474546131088997 -1.1241572770682855
133 1.320018502688737 -1.9172284919759524 -1.6392689934576503
239 -0.182421166124354 0.8246151884170829 1.7717705076337276
178 0.8945517964969414 -0.20372369626261708 -1.8376158316966795
179 1.7337352907650694 -0.6196361809435552 0.43699391871195464
99 -0.5414719774321806 -0.4498387653971721 0.8183831534958252
264 -0.29048753840999014 -0.11590295186081116 -0.4755019075176929
274 1.6661032125911532 -0.09104026601416115 0.8065415614532305
275 1.665060852033933 -0.2901587480961397 -0.35923742012876686
273 -2.508228052474182 0.6665820385577654 -0.757272217037198
149 0.024702653009700825 0.23180224287211526 -0.6554649976487736
194 0.9601426792452181 -0.07341766113211415 0.23016213834749427
78 -0.5159286862854483 -0.9829644531153326 -1.2152306646211246
77 -0.6140018916817241 0.0013783367545592725 -0.7134953316991649
24 -0.9097405498048836 0.3572327493880446 1.5537338022732528
193 0.3117299899135384 0.44875902770099363 -0.6384769524554312
56 -1.2794684044043194 0.21703929205946312 -0.4842554909859297
79 0.6623381297988006 -1.289940353178794 0.38377862895764436
63 0.08378132139186965 0.9343878934274704 1.1138510253800271
237 1.2542564132999097 -1.2324873769557347 0.7645083946100709
64 -0.4544980993871659 -1.8831579286018463 1.4283650725295394
203 0.2095438508626049 -0.46509388446768923 -1.2415696998759762
97 0.05289779761221959 1.641588602987102 0.03446761153103466
98 -1.3826869459692546 0.22935176816926223 -0.8806237199047628
163 0.08992815461979126 1.237143809889987 1.311765762563401
60 -0.0007384188318240596 -0.3751625730633229 0.27921878361507785
202 -0.23600027332984863 0.02221897554612986 0.22842831740550323
2 -0.02827140919687256 -0.7367854355232688 -0.46205950785222943
22 0.6682770464059239 -0.06504850203253988 -0.8532770997729155
23 0.06489663449610843 0.5698498888908806 1.6506618905114951
296 1.440505822247563 -0.710261941501666 1.134648289731005
344 -0.4818481261889676 1.0039611004274183 -0.5104780731737559
80 -1.7121001631410817 0.25628035035845337 0.43058864343801717
341 -2.3034222002034657 0.6724316845823775 -0.8656643452600705
61 0.6887403485491748 -2.822931907518472 -1.1831203367906735
283 -0.8084536204959225 2.641630809428328 -1.388439198909675
234 -0.05954538242691209 0.14175040247283824 0.22424762458715777
284 -1.4861258281549112 -1.5469640454894735 1.0897914091186962
235 0.17437993517108905 0.4848509749331635 -2.302013573912883
164 -0.3887492339733449 1.0660539409254277 1.2042652592310277
390 -0.7297052969361686 0.9852699361004833 -0.5571558525270723
162 0.7249788599605529 -0.6370629524581221 -0.5407239826714992
33 0.47281302351506665 -1.8666426479891873 -1.0104735541051646
200 0.024896977955695992 0.3835221003143775 -0.10626970746071276
394 -1.041241046195468 -1.980113825351631 0.8239165107526777
117 0.6747098268202955 1.412162791850374 0.8266299187772825
118 2.0119270179041133 -1.9050738791755968 -2.795152525752643
342 -0.4850795951094027 1.8989056752474895 0.08304236416735174
72 -0.41036156989530514 0.30231547266849496 0.2307950502393344
343 0.2734792096928931 0.3594497275837853 0.31629090422480616
388 -0.023682394469556105 -0.21678092922618752 1.1484310665342072
282 1.212250613293353 -0.8344824637516081 -0.5270296347466129
369 -0.513867928991698 2.442789042395352 -0.7018528601258502
101 1.2671591646358653 -0.98407928192849 0.07546980466897979
281 2.606995579805792 0.8906281800679721 -1.8113546448649178
370 0.6086119734214523 -0.18842309137739718 1.0959650325637038
371 0.09225969003005874 0.6642201955570928 0.317790075786263
372 -0.9529381125715009 -1.0362013258221354 0.6743333042572583
391 0.7692219816760607 1.3668780877983528 0.30948099899544895
125 0.25720700873724484 0.196092543848213 0.26707755024346885
389 -0.2897277824135671 -0.246379998505196 0.28913493666960105
124 1.106980763181832 -0.36551766860656015 -0.1994921144085408
119 -0.4060495983318196 -1.3336366227446113 -1.8850677627928443
120 0.9817605937100009 0.9723570572179332 1.095943691571823
69 -1.1481744886931058 -1.0233250889857186 1.075298844994534
70 -0.3398696333677861 -1.953609911346866 1.0282883400676788
71 1.9307414865683283 -1.796158345932802 0.4813768949084943
129 0.8881209015200549 0.332621780496484 0.5695692182426129
131 -0.16306393005894762 -1.473543568445017 -0.6447123532747533
206 -0.13075325181044525 1.0843214315122274 0.7219025658854317
189 -0.34660985093645164 1.1706841766961709 0.998250972194209
353 -0.060521790087290285 0.45458639559919817 0.07012870895364332
354 -0.882285770813509 -1.6458874412741165 0.11813159064765154
130 -2.2140450481263385 0.900577910090553 0.660830842626647
205 -0.830152445774829 -0.6642365512706702 0.6725845150062862
190 1.3955505141198208 -3.703629160610462 -0.002726488539152403
355 2.185527415384687 -1.2384832509238677 -0.7768253532392412
356 0.7365940758186224 0.11194121099360849 0.4951566568836753
187 -1.1649314414219565 -0.21726152924947903 -1.79576672379874
107 -2.3385430337618116 -0.6884631537176626 -0.6083207185028862
106 -0.2911691107773041 0.04333922501193391 -1.3044780721157119
105 0.9607470733044688 1.1208105354797107 1.3868510144476036
285 1.1441579638016002 -0.25816119100606644 0.037617035989202116
333 1.5633928774848826 0.7234016509969207 -1.0692320334614207
188 0.5399149788469912 0.6533945619992891 -0.08670361618298152
309 1.2771595411016363 -0.6433973782827188 -0.4601712468937213
108 1.9764502291656647 0.5201728780223797 0.8619576539210302
217 -0.7345592761613603 -1.5158088729650776 -1.7414589250390693
218 1.312020116122308 -0.2797557896441359 1.4682885526586489
54 -1.2077034027922948 1.0695961758937529 -0.8404370361528616
68 -0.05571742466912119 0.21514131025130254 0.030674903019163185
76 -0.8609206818811496 0.3053207985065996 -0.2320054668299146
67 -0.3928876420038325 -1.5483437968918499 -0.07618095580316496
334 -0.5560058639026478 0.15126852378020295 -0.6057511718315932
52 1.1289440738794627 1.2134166064359755 0.08422991401858111
238 1.5610893985840952 -2.357517398004348 -0.08031689370364865
74 -0.6996199038946136 0.15990423502520565 -0.21732010094256213
336 1.2474887092015634 -0.593119050017485 0.23141882672058986
100 -0.8645021039031546 -0.9917729094260335 -0.5583511241948746
335 2.625589654198169 -0.5430355744128099 0.49463506960172543
159 0.10771245141203885 -0.12955485409763534 -1.4739032412926905
263 2.19244217145438 -0.25160168952033646 -0.6357920000713189
262 -0.42025321373613733 -0.5234952498717245 -2.98559542681576
147 -0.2796986562276551 -0.38422038626466654 0.6928238840820943
3 1.0924429802715252 0.42420711673007633 -1.8744185425019397
261 -0.3816484056884424 0.42648518417978487 -0.9521179399527746
294 -0.8803085136211194 1.3701091443485667 -0.6732702526043762
219 1.856697354327767 1.676290450758946 -1.091253333325709
195 1.1128670394408475 0.14299456140351446 1.7193955812633956
196 -1.3756462394665145 -0.9894226846488373 0.7502589024199379
374 -0.7608585847515469 0.2732042185955283 -0.29532536375086876
373 0.5687919080657217 1.264827084364171 -0.7376834689596109
55 1.9805473145650214 -0.4284074280375963 1.4724157767146882
50 0.00790077374365177 -0.6148856924612662 0.21980508676290297
66 -0.8882801734646785 -1.388851799214246 0.9479585075092267
51 1.7559519461688726 -1.650083496221454 -0.19714789358429896
110 1.305551341825958 -0.42482937539113724 0.903799074075139
157 1.5386009966489544 -1.9604441534643409 -1.7862709982922675
109 -0.939027668463679 0.11283386108689226 -0.09167628169973993
160 0.15901869070188285 0.8108660253374651 -0.7559266267433138
4 -0.9301080512242621 -0.039143983304328125 -2.24021873086165
393 0.2869311920178359 0.30107027539508757 0.05451235403953618
1 0.23209199472063013 -0.695865166081072 0.19333674855486246
146 -1.3824555143222226 0.10019671537128562 -0.7354172796775901
293 1.3294180981180581 -0.7126270072396855 -0.4933421881980259
295 0.07150294234315246 0.5925855313687396 -0.6741749942710772
375 -1.4178841664513775 0.5783646967437814 -0.6935876077748895
49 -0.34796116736891614 -0.38402141813285273 0.8501010516544389
250 0.847269233191163 0.41481671704625106 -0.5751467674361813
112 0.03745541316411222 0.897209313147601 1.2899449364947737
249 0.3449818421684837 0.3869199403510056 -0.1569270538895888
170 -0.09285126590146314 -3.435557081898274 1.434017493080123
171 0.5151513111297188 0.3139429668198546 -2.444649768462143
111 -0.4051309508127286 0.07774232406660302 0.34286974598861436
236 -0.02693400149523907 -0.6434287443796426 -1.7488452593912154
93 0.42098725343057486 0.2450709620604558 -1.2255881061931373
59 -0.15638863750214635 1.196140408193406 -0.42402732333607673
57 1.9755698531425685 -0.7188696723516824 0.8848467997505249
58 -0.4649545339851694 0.795199926957692 0.3116999353164952
300 -0.30335683740334385 0.7029856211681543 -0.1975812399260495
299 -0.9411492118686243 1.2652565920647008 0.5166166271209813
395 -1.1440016285371302 0.6319655985037902 -0.4055399551370088
396 1.2929292997763724 -0.41421687740097707 -0.8318595701368477
243 0.28782334796657877 0.36039072566730207 0.3232448728779876
242 -0.6594412877047218 0.5878373097517606 -0.8672901143563551
252 -0.892254685432592 0.18702397140230592 0.79080641596305
251 0.2558232006079659 0.04224023788913429 -0.5280703453556985
302 1.2065337825419242 1.6190588593597932 -0.27509045491602013
301 0.04813906005183617 -0.7530481871251528 0.705789619587826
397 1.4359273567511481 0.5887457934324855 -0.486207381722331
398 -1.3627420775197074 0.2835278498673072 0.7745154283714176
399 1.1038086094630155 1.377674665983459 -1.1435185237098942
400 0.6294476371562878 0.843547167757109 0.09861764158161407
126 0.1341311790542119 2.147521812644166 1.4865239054797295
298 -0.7010074251855422 -1.2693376868189987 -1.4805011635883147
199 1.9752659743647456 -0.7306279159845926 0.2641287546051798
198 -0.1666542835023349 0.8536386852974176 0.04937367615836536
116 0.18194367258858143 0.04744896629827212 -0.45283936967981514
303 0.4702725444919931 0.4998427980727076 0.47502076656796594
289 2.0544457728017758 -0.13718734220107598 0.12965739998915574
304 0.5724362901384501 0.4066125507278282 -0.4716090609180206
208 0.1942223224063222 -1.0305920651662408 1.7529978909534722
207 -0.22374323464916432 -0.12872126751551136 0.9205897408843827
290 2.7700408098798044 -0.3427076804036352 0.5299129719261819
291 -2.159917157157299 0.5867019629170911 0.08990686310156797
192 -1.0177627049992226 -0.829780387183676 0.43147246585360455
127 -0.7506716677711808 1.3320675213116737 -2.1538944016046395
114 2.0653056886385084 1.8469253730992448 -0.9391918601653855
113 -0.6757895990932361 0.8147581683435472 -0.43582268671333874
115 0.09046266912917449 0.6700827535387769 -0.3932346321591196
191 -0.007709790198047791 -1.5738454230394976 0.4409608189305002
332 2.201604150357821 -0.5441747476422173 0.14213852772937555
12 1.2210380484968069 0.4556172413756907 -0.5192293410922386
331 -0.025888946946401016 0.6125288012721588 -0.6434784051598273
11 0.2483844336598493 0.302989586867146 0.022414397428641528
10 0.44800684312796557 0.32564369176526375 0.12644693626846074
9 0.8728965837072766 0.16190577256031918 -0.639076117654074
320 0.4813744964818571 -1.240981838046018 0.2252568885781421
329 -0.450351224236414 -0.22706105509482133 1.2216327174479091
330 0.5911753480526383 0.4330826147317545 0.41317376428150376
142 -0.14138012404769712 0.5528038215993558 -1.1198259805841624
75 0.08222983117478659 -0.1598352838414337 -1.4418826865303198
73 0.2548422912476189 0.9960871598914766 0.6532380765847869
258 -1.7953366184558592 0.18075504561924483 0.3411567590298076
148 0.24305085126218653 -0.9321944779650455 -1.1230192760955995
220 1.0012162927441597 0.5169364390800882 -0.9095910896656635
308 0.3936828721716592 0.9534768633907027 -0.1812151611672959
307 -1.4247301625343616 -2.781376932166791 0.38186862546655975
306 0.9532032299917977 -1.9966346477071923 0.6025025632544624
305 -2.552686918315803 -0.6171719330217086 0.7473257028666683
65 -0.480917313325923 0.09675866398646821 0.569463356968675
96 2.1674586507185456 -1.7483496664297762 -0.9671672244987656
257 0.5263978564937969 -0.48981379562971056 -0.20609879088282645
95 -0.7657369911862492 0.6166869373512175 1.5539416703156474
158 0.7493705391440298 0.6860611515219041 0.1495086362539074
259 1.2619700564300518 0.20911436722656757 -0.2025827508020386
253 -1.1390588171688971 0.1839380429803135 0.5075776776064534
145 -0.8121161026962342 0.10607569924879152 -0.48233209818309253
376 0.8424912977665909 0.9290043451518782 -2.240539493707402
169 0.21455757863188413 0.12088915452115251 0.9223742716446883
165 -0.5714164270777167 0.881142297799428 -0.8776567654227946
166 -0.6824443348683831 -0.3391233118887789 1.1285232607805125
167 -1.7946024191709213 0.27383113350114074 0.712898725389018
94 0.27808900060548924 -0.6416733411667861 -1.368733071988105
256 -1.7464953319483532 0.42701894442967836 -0.6664596765056123
255 0.9974009666058699 -1.4801929314728184 -0.5030043287937757
88 2.3132505353744737 -0.6078767096723584 2.0231671669516555
254 -1.4591701431013917 -0.3669092882650428 0.5175803629301605
315 0.4756239806795001 2.8352165938010225 -0.007734430835577081
316 2.0946150413046043 -0.5632487741947666 -1.1919489199034674
241 1.833839608536054 0.10680125772815352 0.7082049910797874
244 -1.0871697845698098 1.028800349145896 1.8254991887792074
174 0.6909347774120924 -0.9870058101354086 -1.7266873207054296
172 -1.050454310218491 -0.6579386497294821 -0.9085084214274635
175 0.18053798296664944 -0.277367810915932 0.7124668607542607
176 1.0620586860216354 -0.5508665507304503 0.005680706023496385
292 1.081957675316612 0.19706264748894067 -0.40328066004755936
173 -0.13134472705397338 0.7583949495671476 -0.8085171727997209
87 -0.5017993163579788 0.3840221718543174 0.4532038286157655
86 -0.7018875715221516 -0.42654743168587705 0.5136216142064081
297 -0.46186297525597814 0.25238056891603416 1.1923236803771526
197 0.16059120330244817 0.18456966120255391 0.43829652889967713
246 -0.14058437442608834 0.624006479519412 -0.6820119670903556
248 2.2086031203722465 -0.18342655260087803 -0.743639087798553
128 -0.6854846052252441 0.465883017660612 -0.09083113070862243
85 0.4996963680862146 -0.4014444105559182 1.6061592894073564
317 0.2205530074482347 0.6298082183519615 2.8384262850646107
25 -0.5881150977007239 -0.5827819709452557 -1.3368321246457755
319 0.24697489722149354 0.17806456393234685 -1.7447610899979682
318 -1.6430930837394515 0.3606567661852526 -0.14253212527977757
27 1.1364641402397258 -1.1306982052872918 -0.010833330808978957
28 0.004682523646691296 0.6397730658823008 0.8171884451958913
26 1.1684439245275053 1.0792395132490944 -0.29585511739159215
141 0.9567332010440189 -0.1689587475486826 1.2609298746778614
143 -1.4331521819419484 -0.3073267880022093 -0.8802539572835616
144 0.2841808225843073 0.5704575264135079 0.28759780312008326
277 -1.4161803026518978 2.4774814002882 -1.330134189445392
278 -0.6824295777537934 -0.46350666286778897 -1.2432245115754614
280 -0.06567445592692189 -0.04264460795018991 -1.5566696166994662
260 0.5854374375968011 -1.2405630976419493 0.0494376348182034
279 0.21015647457027595 -2.5886840293457447 0.9342541922483832
245 0.4835116290443557 0.24487786543293064 -0.09550679923831552
313 -0.49178448083962895 0.5974502201208427 -0.666079628592584
314 1.4776784770596643 -1.0832974369064232 -0.6483535963996352
168 -0.2805645319041186 -2.014931924911693 1.2602394637679766
247 0.18646786482767888 0.3172081856283222 -0.45700902605767413

Bonds

1 1 325 326
2 1 226 227
3 1 266 267
4 1 326 327
5 1 230 231
6 1 231 232
7 1 6 7
8 1 7 8
9 1 227 228
10 1 43 44
11 1 41 42
12 2 41 325
13 1 42 43
14 1 155 156
15 1 154 155
16 1 153 154
17 1 323 324
18 1 382 383
19 1 381 382
20 1 225 226
21 1 383 384
22 1 362 363
23 1 265 266
24 1 267 268
25 1 223 224
26 1 214 215
27 1 327 328
28 1 321 322
29 2 321 381
30 1 366 367
31 1 229 230
32 1 349 350
33 2 349 364
34 2 32 352
35 1 213 214
36 1 221 222
37 1 215 216
38 1 367 368
39 1 377 378
40 1 182 183
41 2 184 377
42 1 350 351
43 1 29 30
44 1 351 352
45 1 139 140
46 1 19 20
47 1 181 182
48 2 181 368
49 1 183 184
50 1 337 338
51 1 13 14
52 1 5 6
53 2 5 324
54 1 81 82
55 2 84 360
56 1 83 84
57 1 358 359
58 1 359 360
59 1 135 136
60 2 152 209
61 1 151 152
62 1 89 90
63 2 8 89
64 1 90 91
65 1 91 92
66 1 134 135
67 1 361 362
68 2 92 361
69 1 363 364
70 1 177 178
71 1 222 223
72 1 150 151
73 1 322 323
74 1 379 380
75 1 346 347
76 1 345 346
77 2 345 380
78 2 180 204
79 1 31 32
80 1 138 139
81 1 201 202
82 1 21 22
83 2 21 40
84 1 365 366
85 2 348 365
86 1 39 40
87 1 38 39
88 1 378 379
89 1 347 348
90 1 45 46
91 1 30 31
92 1 46 47
93 1 233 234
94 1 62 63
95 1 17 18
96 2 17 36
97 1 137 138
98 2 137 164
99 2 20 140
100 1 161 162
101 1 37 38
102 1 386 387
103 1 385 386
104 1 47 48
105 1 339 340
106 1 338 339
107 1 18 19
108 1 35 36
109 1 34 35
110 1 387 388
111 2 104 132
112 1 102 103
113 1 103 104
114 1 270 271
115 1 271 272
116 1 122 123
117 1 123 124
118 1 121 122
119 1 269 270
120 1 186 187
121 1 185 186
122 1 82 83
123 1 287 288
124 1 357 358
125 1 14 15
126 1 286 287
127 1 15 16
128 2 16 264
129 1 311 312
130 1 310 311
131 1 209 210
132 1 210 211
133 1 211 212
134 1 53 54
135 1 133 134
136 1 239 240
137 1 178 179
138 1 179 180
139 1 99 100
140 1 274 275
141 1 275 276
142 1 273 274
143 1 149 150
144 1 194 195
145 1 78 79
146 1 77 78
147 2 77 149
148 1 193 194
149 2 56 64
150 1 79 80
151 1 63 64
152 1 237 238
153 1 203 204
154 1 97 98
155 2 97 237
156 1 98 99
157 1 163 164
158 2 60 109
159 1 202 203
160 1 2 3
161 1 22 23
162 1 23 24
163 2 296 341
164 1 341 342
165 1 61 62
166 2 61 284
167 1 283 284
168 1 234 235
169 1 235 236
170 1 390 391
171 1 162 163
172 1 33 34
173 2 33 161
174 2 200 300
175 1 394 395
176 1 117 118
177 1 118 119
178 1 342 343
179 2 72 388
180 1 343 344
181 1 282 283
182 1 369 370
183 1 101 102
184 2 101 281
185 1 281 282
186 1 370 371
187 1 371 372
188 2 372 400
189 1 391 392
190 1 125 126
191 1 389 390
192 2 124 389
193 1 119 120
194 1 69 70
195 1 70 71
196 1 71 72
197 1 129 130
198 1 131 132
199 1 206 207
200 1 189 190
201 2 189 272
202 1 353 354
203 2 353 392
204 1 354 355
205 1 130 131
206 1 205 206
207 1 190 191
208 1 355 356
209 1 187 188
210 1 107 108
211 1 106 107
212 1 105 106
213 2 105 285
214 1 285 286
215 1 333 334
216 1 309 310
217 2 108 217
218 1 217 218
219 1 218 219
220 1 54 55
221 2 68 332
222 2 76 333
223 1 67 68
224 1 334 335
225 1 238 239
226 1 74 75
227 2 100 160
228 1 335 336
229 1 159 160
230 1 263 264
231 1 262 263
232 1 147 148
233 1 3 4
234 1 261 262
235 1 294 295
236 1 219 220
237 1 195 196
238 1 374 375
239 1 373 374
240 1 55 56
241 1 50 51
242 1 66 67
243 1 51 52
244 1 110 111
245 1 157 158
246 1 109 110
247 2 4 393
248 1 393 394
249 1 1 2
250 1 146 147
251 1 293 294
252 2 293 344
253 1 295 296
254 1 375 376
255 1 49 50
256 2 49 373
257 1 250 251
258 2 112 249
259 1 249 250
260 1 170 171
261 1 171 172
262 1 111 112
263 1 93 94
264 2 93 236
265 1 59 60
266 1 57 58
267 2 57 256
268 1 58 59
269 1 299 300
270 1 395 396
271 1 243 244
272 1 242 243
273 2 252 369
274 1 251 252
275 1 302 303
276 1 301 302
277 1 397 398
278 1 398 399
279 1 399 400
280 1 126 127
281 1 298 299
282 1 199 200
283 1 198 199
284 1 303 304
285 1 289 290
286 2 289 304
287 1 207 208
288 1 290 291
289 1 291 292
290 2 192 208
291 1 127 128
292 1 114 115
293 1 113 114
294 1 115 116
295 1 191 192
296 2 12 317
297 1 331 332
298 1 11 12
299 1 10 11
300 1 9 10
301 1 329 330
302 1 330 331
303 1 142 143
304 1 75 76
305 1 73 74
306 1 258 259
307 1 307 308
308 1 306 307
309 1 305 306
310 1 65 66
311 2 65 73
312 1 257 258
313 2 257 277
314 1 95 96
315 1 158 159
316 1 259 260
317 1 253 254
318 1 145 146
319 2 145 253
320 1 169 170
321 2 169 244
322 1 165 166
323 1 166 167
324 1 167 168
325 1 94 95
326 1 255 256
327 2 88 297
328 1 254 255
329 1 315 316
330 1 241 242
331 1 174 175
332 2 172 173
333 1 175 176
334 2 292 301
335 1 173 174
336 1 87 88
337 1 86 87
338 1 297 298
339 1 197 198
340 1 246 247
341 1 85 86
342 1 317 318
343 1 25 26
344 2 25 329
345 1 319 320
346 1 318 319
347 1 27 28
348 1 26 27
349 1 141 142
350 1 143 144
351 1 277 278
352 1 278 279
353 2 260 280
354 1 279 280
355 1 245 246
356 2 245 313
357 1 313 314
358 1 314 315
359 2 168 176
360 1 247 248
