LAMMPS (10 Dec 2025)
OMP_NUM_THREADS environment is not set. Defaulting to 1 thread.
  using 1 OpenMP thread(s) per MPI task
# ─── Equilibration of polymer gel network ────────────────────────────────────

units           lj
atom_style      bond
boundary        p p p

read_data       /home/krutarth0911/biomechanical-fingerprinting/lammps/build/gel.data
Reading data file ...
  orthogonal box = (0 0 0) to (20 20 20)
  1 by 1 by 1 MPI processor grid
  reading atoms ...
  480 atoms
  scanning bonds ...
  2 = max bonds/atom
  orthogonal box = (0 0 0) to (20 20 20)
  1 by 1 by 1 MPI processor grid
  reading bonds ...
  450 bonds
Finding 1-2 1-3 1-4 neighbors ...
  special bond factors lj:    0        0        0       
  special bond factors coul:  0        0        0       
     2 = max # of 1-2 neighbors
     2 = max # of 1-3 neighbors
     4 = max # of 1-4 neighbors
     6 = max # of special neighbors
  special bonds CPU = 0.000 seconds
  read_data CPU = 0.003 seconds

# ─── Force field ─────────────────────────────────────────────────────────────
pair_style      lj/cut 2.5
pair_coeff      * * 1.0 1.0 2.5

bond_style      fene
bond_coeff      1 30.0 1.5 1.0 1.0
bond_coeff      2 30.0 1.5 1.0 1.0

special_bonds   fene
Finding 1-2 1-3 1-4 neighbors ...
  special bond factors lj:    0        1        1       
  special bond factors coul:  0        1        1       
     2 = max # of 1-2 neighbors
     6 = max # of special neighbors
  special bonds CPU = 0.000 seconds

# ─── Settings ────────────────────────────────────────────────────────────────
neighbor        0.3 bin
neigh_modify    every 1 delay 0 check yes

timestep        0.001

thermo          1000
thermo_style    custom step temp press etotal

# ─── Minimise first ──────────────────────────────────────────────────────────
minimize        1.0e-4 1.0e-6 5000 50000
Generated 0 of 1 mixed pair_coeff terms from geometric mixing rule
Neighbor list info ...
  update: every = 1 steps, delay = 0 steps, check = yes
  max neighbors/atom: 2000, page size: 100000
  master list distance cutoff = 2.8
  ghost atom cutoff = 2.8
  binsize = 1.4, bins = 15 15 15
  1 neighbor lists, perpetual/occasional/extra = 1 0 0
  (1) pair lj/cut, perpetual
      attributes: half, newton on
      pair build: half/bin/newton
      stencil: half/bin/3d
      bin: standard
WARNING: FENE bond too long: 0 385 386 1.5547177493037116 (src/MOLECULE/bond_fene.cpp:89)
WARNING: FENE bond too long: 0 359 360 1.4837640311046767 (src/MOLECULE/bond_fene.cpp:89)
WARNING: FENE bond too long: 0 119 120 1.4598290653360753 (src/MOLECULE/bond_fene.cpp:89)
Per MPI rank memory allocation (min/avg/max) = 5.667 | 5.667 | 5.667 Mbytes
   Step          Temp          Press          TotEng    
         0   0              56398189       2.3499095e+08
WARNING: FENE bond too long: 1 385 386 1.554717763579938 (src/MOLECULE/bond_fene.cpp:89)
WARNING: FENE bond too long: 1 359 360 1.4837629018975238 (src/MOLECULE/bond_fene.cpp:89)
WARNING: FENE bond too long: 1 119 120 1.4598290653181683 (src/MOLECULE/bond_fene.cpp:89)
WARNING: FENE bond too long: 1 385 386 1.554717756441823 (src/MOLECULE/bond_fene.cpp:89)
WARNING: FENE bond too long: 1 359 360 1.4837634665000021 (src/MOLECULE/bond_fene.cpp:89)
WARNING: FENE bond too long: 1 119 120 1.4598290653271233 (src/MOLECULE/bond_fene.cpp:89)
WARNING: FENE bond too long: 1 385 386 1.554717752872768 (src/MOLECULE/bond_fene.cpp:89)
WARNING: FENE bond too long: 1 359 360 1.483763748802064 (src/MOLECULE/bond_fene.cpp:89)
WARNING: FENE bond too long: 1 119 120 1.459829065331598 (src/MOLECULE/bond_fene.cpp:89)
WARNING: FENE bond too long: 1 385 386 1.554717758801098 (src/MOLECULE/bond_fene.cpp:89)
WARNING: FENE bond too long: 1 359 360 1.4837632798884761 (src/MOLECULE/bond_fene.cpp:89)
WARNING: FENE bond too long: 1 119 120 1.4598290653241621 (src/MOLECULE/bond_fene.cpp:89)
WARNING: FENE bond too long: 2 385 386 1.5547180809516317 (src/MOLECULE/bond_fene.cpp:89)
WARNING: FENE bond too long: 2 359 360 1.4837378064919802 (src/MOLECULE/bond_fene.cpp:89)
WARNING: FENE bond too long: 2 119 120 1.4598290649200927 (src/MOLECULE/bond_fene.cpp:89)
WARNING: FENE bond too long: 2 273 274 1.439488614330669 (src/MOLECULE/bond_fene.cpp:89)
WARNING: FENE bond too long: 2 385 386 1.554717919875685 (src/MOLECULE/bond_fene.cpp:89)
WARNING: FENE bond too long: 2 359 360 1.4837505426311846 (src/MOLECULE/bond_fene.cpp:89)
WARNING: FENE bond too long: 2 119 120 1.459829065122127 (src/MOLECULE/bond_fene.cpp:89)
WARNING: FENE bond too long: 2 385 386 1.5547178393382222 (src/MOLECULE/bond_fene.cpp:89)
WARNING: FENE bond too long: 2 359 360 1.483756911120071 (src/MOLECULE/bond_fene.cpp:89)
WARNING: FENE bond too long: 2 119 120 1.459829065223145 (src/MOLECULE/bond_fene.cpp:89)
WARNING: FENE bond too long: 3 385 386 1.5547216144487983 (src/MOLECULE/bond_fene.cpp:89)
WARNING: FENE bond too long: 3 359 360 1.4834592459130238 (src/MOLECULE/bond_fene.cpp:89)
WARNING: FENE bond too long: 3 119 120 1.4598290604883106 (src/MOLECULE/bond_fene.cpp:89)
WARNING: FENE bond too long: 3 273 274 1.4653735795400225 (src/MOLECULE/bond_fene.cpp:89)
WARNING: FENE bond too long: 3 385 386 1.5547197268003725 (src/MOLECULE/bond_fene.cpp:89)
WARNING: FENE bond too long: 3 359 360 1.4836080020085072 (src/MOLECULE/bond_fene.cpp:89)
WARNING: FENE bond too long: 3 119 120 1.4598290628557262 (src/MOLECULE/bond_fene.cpp:89)
WARNING: FENE bond too long: 3 385 386 1.5547187830460136 (src/MOLECULE/bond_fene.cpp:89)
WARNING: FENE bond too long: 3 359 360 1.4836824374401563 (src/MOLECULE/bond_fene.cpp:89)
WARNING: FENE bond too long: 3 119 120 1.4598290640394358 (src/MOLECULE/bond_fene.cpp:89)
WARNING: FENE bond too long: 3 385 386 1.554718311186297 (src/MOLECULE/bond_fene.cpp:89)
WARNING: FENE bond too long: 3 359 360 1.4837196694994392 (src/MOLECULE/bond_fene.cpp:89)
WARNING: FENE bond too long: 3 119 120 1.4598290646312901 (src/MOLECULE/bond_fene.cpp:89)
WARNING: FENE bond too long: 4 385 386 1.5547302385015054 (src/MOLECULE/bond_fene.cpp:89)
WARNING: FENE bond too long: 4 359 360 1.4827912928698435 (src/MOLECULE/bond_fene.cpp:89)
WARNING: FENE bond too long: 4 119 120 1.459829049671639 (src/MOLECULE/bond_fene.cpp:89)
WARNING: FENE bond too long: 4 273 274 1.4708168043597198 (src/MOLECULE/bond_fene.cpp:89)
WARNING: FENE bond too long: 4 385 386 1.5547242739146219 (src/MOLECULE/bond_fene.cpp:89)
WARNING: FENE bond too long: 4 359 360 1.483254732781871 (src/MOLECULE/bond_fene.cpp:89)
WARNING: FENE bond too long: 4 119 120 1.4598290571514643 (src/MOLECULE/bond_fene.cpp:89)
WARNING: FENE bond too long: 4 273 274 1.424459495306742 (src/MOLECULE/bond_fene.cpp:89)
WARNING: FENE bond too long: 4 385 386 1.5547212923181386 (src/MOLECULE/bond_fene.cpp:89)
WARNING: FENE bond too long: 4 359 360 1.4834870141278163 (src/MOLECULE/bond_fene.cpp:89)
WARNING: FENE bond too long: 4 119 120 1.4598290608913769 (src/MOLECULE/bond_fene.cpp:89)
WARNING: FENE bond too long: 5 385 386 1.5548123349165777 (src/MOLECULE/bond_fene.cpp:89)
WARNING: FENE bond too long: 5 359 360 1.4769965421223807 (src/MOLECULE/bond_fene.cpp:89)
WARNING: FENE bond too long: 5 119 120 1.459828946778138 (src/MOLECULE/bond_fene.cpp:89)
WARNING: FENE bond too long: 5 273 274 1.483354845549335 (src/MOLECULE/bond_fene.cpp:89)
WARNING: FENE bond too long: 5 385 386 1.5547667597101533 (src/MOLECULE/bond_fene.cpp:89)
WARNING: FENE bond too long: 5 359 360 1.4802033355055109 (src/MOLECULE/bond_fene.cpp:89)
WARNING: FENE bond too long: 5 119 120 1.4598290038347561 (src/MOLECULE/bond_fene.cpp:89)
WARNING: FENE bond too long: 5 273 274 1.4422521074547434 (src/MOLECULE/bond_fene.cpp:89)
WARNING: FENE bond too long: 5 385 386 1.554744012536753 (src/MOLECULE/bond_fene.cpp:89)
WARNING: FENE bond too long: 5 359 360 1.4818355958264224 (src/MOLECULE/bond_fene.cpp:89)
WARNING: FENE bond too long: 5 119 120 1.4598290323630676 (src/MOLECULE/bond_fene.cpp:89)
WARNING: FENE bond too long: 6 385 386 1.5552597284128757 (src/MOLECULE/bond_fene.cpp:89)
WARNING: FENE bond too long: 6 359 360 1.460308473133052 (src/MOLECULE/bond_fene.cpp:89)
WARNING: FENE bond too long: 6 119 120 1.4598283860805057 (src/MOLECULE/bond_fene.cpp:89)
WARNING: FENE bond too long: 6 273 274 1.4958629143755415 (src/MOLECULE/bond_fene.cpp:89)
WARNING: FENE bond too long: 6 385 386 1.555000180877511 (src/MOLECULE/bond_fene.cpp:89)
WARNING: FENE bond too long: 6 359 360 1.4705691205698117 (src/MOLECULE/bond_fene.cpp:89)
WARNING: FENE bond too long: 6 119 120 1.4598287092217876 (src/MOLECULE/bond_fene.cpp:89)
WARNING: FENE bond too long: 6 273 274 1.4587143506221498 (src/MOLECULE/bond_fene.cpp:89)
WARNING: FENE bond too long: 6 385 386 1.5548716742029032 (src/MOLECULE/bond_fene.cpp:89)
WARNING: FENE bond too long: 6 359 360 1.476078021003268 (src/MOLECULE/bond_fene.cpp:89)
WARNING: FENE bond too long: 6 119 120 1.4598288707924258 (src/MOLECULE/bond_fene.cpp:89)
WARNING: FENE bond too long: 6 273 274 1.4402155562057797 (src/MOLECULE/bond_fene.cpp:89)
WARNING: FENE bond too long: 7 385 386 1.5572053836969089 (src/MOLECULE/bond_fene.cpp:89)
WARNING: FENE bond too long: 7 359 360 1.455442589526565 (src/MOLECULE/bond_fene.cpp:89)
WARNING: FENE bond too long: 7 119 120 1.4598258962073603 (src/MOLECULE/bond_fene.cpp:89)
WARNING: FENE bond too long: 7 273 274 1.5102614750989662 (src/MOLECULE/bond_fene.cpp:89)
WARNING: FENE bond too long: 7 385 386 1.5560070428960753 (src/MOLECULE/bond_fene.cpp:89)
WARNING: FENE bond too long: 7 359 360 1.4652454161849435 (src/MOLECULE/bond_fene.cpp:89)
WARNING: FENE bond too long: 7 119 120 1.4598273834998916 (src/MOLECULE/bond_fene.cpp:89)
WARNING: FENE bond too long: 7 273 274 1.4751280369109128 (src/MOLECULE/bond_fene.cpp:89)
WARNING: FENE bond too long: 7 385 386 1.5554314782381982 (src/MOLECULE/bond_fene.cpp:89)
WARNING: FENE bond too long: 7 359 360 1.4705343679579943 (src/MOLECULE/bond_fene.cpp:89)
WARNING: FENE bond too long: 7 119 120 1.459828127146159 (src/MOLECULE/bond_fene.cpp:89)
WARNING: FENE bond too long: 7 273 274 1.4576431822263256 (src/MOLECULE/bond_fene.cpp:89)
WARNING: FENE bond too long: 8 385 386 1.563347075569134 (src/MOLECULE/bond_fene.cpp:89)
WARNING: FENE bond too long: 8 359 360 1.450903593964847 (src/MOLECULE/bond_fene.cpp:89)
WARNING: FENE bond too long: 8 119 120 1.459816409977993 (src/MOLECULE/bond_fene.cpp:89)
WARNING: FENE bond too long: 8 273 274 1.5249632328209222 (src/MOLECULE/bond_fene.cpp:89)
WARNING: FENE bond too long: 8 385 386 1.559103935144534 (src/MOLECULE/bond_fene.cpp:89)
WARNING: FENE bond too long: 8 359 360 1.4601974375421591 (src/MOLECULE/bond_fene.cpp:89)
WARNING: FENE bond too long: 8 119 120 1.459822268562056 (src/MOLECULE/bond_fene.cpp:89)
WARNING: FENE bond too long: 8 273 274 1.4911916204503441 (src/MOLECULE/bond_fene.cpp:89)
WARNING: FENE bond too long: 9 385 386 1.5671013994053316 (src/MOLECULE/bond_fene.cpp:89)
WARNING: FENE bond too long: 9 359 360 1.4532857456010697 (src/MOLECULE/bond_fene.cpp:89)
WARNING: FENE bond too long: 9 119 120 1.4597763807035606 (src/MOLECULE/bond_fene.cpp:89)
WARNING: FENE bond too long: 9 273 274 1.5152946786223227 (src/MOLECULE/bond_fene.cpp:89)
WARNING: FENE bond too long: 10 385 386 1.577409918727741 (src/MOLECULE/bond_fene.cpp:89)
WARNING: FENE bond too long: 10 359 360 1.4481152663334806 (src/MOLECULE/bond_fene.cpp:89)
WARNING: FENE bond too long: 10 119 120 1.4596150826900227 (src/MOLECULE/bond_fene.cpp:89)
WARNING: FENE bond too long: 10 273 274 1.5357226844070315 (src/MOLECULE/bond_fene.cpp:89)
WARNING: Too many warnings: 168 vs 100. All future warnings will be suppressed
        50   0             -0.028335836    17.824583    
Loop time of 0.0095807 on 1 procs for 50 steps with 480 atoms

97.9% CPU use with 1 MPI tasks x 1 OpenMP threads

Minimization stats:
  Stopping criterion = energy tolerance
  Energy initial, next-to-last, final = 
      234990953.229344   17.8262768508598   17.8245825160881
  Force two-norm initial, final = 1.0154261e+13 67.75951
  Force max component initial, final = 5.4013849e+12 14.680419
  Final line search alpha, max atom move = 0.0035260853 0.05176441
  Iterations, force evaluations = 50 87

MPI task timing breakdown:
Section |  min time  |  avg time  |  max time  |%varavg| %total
---------------------------------------------------------------
Pair    | 0.0037921  | 0.0037921  | 0.0037921  |   0.0 | 39.58
Bond    | 0.0010895  | 0.0010895  | 0.0010895  |   0.0 | 11.37
Neigh   | 0.0028297  | 0.0028297  | 0.0028297  |   0.0 | 29.54
Comm    | 0.0002649  | 0.0002649  | 0.0002649  |   0.0 |  2.76
Output  | 0          | 0          | 0          |   0.0 |  0.00
Modify  | 0          | 0          | 0          |   0.0 |  0.00
Other   |            | 0.001604   |            |       | 16.75

Nlocal:            480 ave         480 max         480 min
Histogram: 1 0 0 0 0 0 0 0 0 0
Nghost:            199 ave         199 max         199 min
Histogram: 1 0 0 0 0 0 0 0 0 0
Neighs:           2768 ave        2768 max        2768 min
Histogram: 1 0 0 0 0 0 0 0 0 0

Total # of neighbors = 2768
Ave neighs/atom = 5.7666667
Ave special neighs/atom = 1.875
Neighbor list builds = 16
Dangerous builds = 0

# ─── Equilibrate ─────────────────────────────────────────────────────────────
velocity        all create 1.0 12345 dist gaussian

fix             1 all nvt temp 1.0 1.0 1.0
run             20000
Generated 0 of 1 mixed pair_coeff terms from geometric mixing rule
Per MPI rank memory allocation (min/avg/max) = 4.542 | 4.542 | 4.542 Mbytes
   Step          Temp          Press          TotEng    
        50   1              0.031539164    19.321458    
      1000   0.87071934     0.0026857712   19.455431    
      2000   1.0339187      0.028838691    19.593359    
      3000   1.0615675     -0.030126893    19.632163    
      4000   1.0710507      0.0076510568   19.466569    
      5000   0.96386087     0.02040611     19.296119    
      6000   1.018139       0.02781281     19.177208    
      7000   1.0270228      0.069738207    19.048387    
      8000   1.0111347      0.045074901    18.949159    
      9000   1.0174883     -0.038010364    18.8799      
     10000   1.0057528      0.023528186    18.787639    
     11000   1.0296726     -0.014287073    18.685625    
     12000   0.94090682    -0.026036038    18.645552    
     13000   1.0358938      0.0046810638   18.659972    
     14000   0.97271171    -0.026131073    18.62394     
     15000   0.93944781     0.0031323987   18.587429    
     16000   1.0332144      0.037361429    18.51167     
     17000   0.93405653    -0.032278563    18.397145    
     18000   0.97645526     0.071603915    18.412104    
     19000   1.0354986      0.018151555    18.479469    
     20000   1.0265889      0.0075311968   18.575474    
     20050   1.0756906     -0.012911326    18.584239    
Loop time of 1.08463 on 1 procs for 20000 steps with 480 atoms

Performance: 1593169.132 tau/day, 18439.458 timesteps/s, 8.851 Matom-step/s
97.7% CPU use with 1 MPI tasks x 1 OpenMP threads

MPI task timing breakdown:
Section |  min time  |  avg time  |  max time  |%varavg| %total
---------------------------------------------------------------
Pair    | 0.73374    | 0.73374    | 0.73374    |   0.0 | 67.65
Bond    | 0.057161   | 0.057161   | 0.057161   |   0.0 |  5.27
Neigh   | 0.11499    | 0.11499    | 0.11499    |   0.0 | 10.60
Comm    | 0.02657    | 0.02657    | 0.02657    |   0.0 |  2.45
Output  | 0.0017453  | 0.0017453  | 0.0017453  |   0.0 |  0.16
Modify  | 0.1186     | 0.1186     | 0.1186     |   0.0 | 10.93
Other   |            | 0.03183    |            |       |  2.93

Nlocal:            480 ave         480 max         480 min
Histogram: 1 0 0 0 0 0 0 0 0 0
Nghost:            250 ave         250 max         250 min
Histogram: 1 0 0 0 0 0 0 0 0 0
Neighs:           8073 ave        8073 max        8073 min
Histogram: 1 0 0 0 0 0 0 0 0 0

Total # of neighbors = 8073
Ave neighs/atom = 16.81875
Ave special neighs/atom = 1.875
Neighbor list builds = 507
Dangerous builds = 0
unfix           1

# ─── Save ────────────────────────────────────────────────────────────────────
write_data      /home/krutarth0911/biomechanical-fingerprinting/lammps/equil/gel_equil.data
System init for write_data ...
Generated 0 of 1 mixed pair_coeff terms from geometric mixing rule
write_dump      all atom 1 /home/krutarth0911/biomechanical-fingerprinting/lammps/equil/equil_final.lammpstrj
ERROR: Illegal dump atom command (src/dump_atom.cpp:37)
Last input line: write_dump all atom 1 /home/krutarth0911/biomechanical-fingerprinting/lammps/equil/equil_final.lammpstrj
